NAME : data_8_1_tsptw.tsptw
TYPE : TSPTW
DIMENSION : 9
EDGE_WEIGHT_TYPE : EXPLICIT
EDGE_WEIGHT_FORMAT : FULL_MATRIX
EDGE_WEIGHT_SECTION
0 3131 3046 2924 3159 2594 3165 3009 2425
2979 0 274 617 563 745 518 359 1030
2856 439 0 850 795 917 420 239 1203
2781 368 477 0 234 652 527 468 938
2800 690 626 646 0 670 293 398 956
2180 666 774 349 584 0 818 783 337
2929 617 553 723 790 747 0 344 1033
2901 446 240 674 619 794 297 0 1080
2175 907 1016 591 826 242 970 1025 0
TIME_WINDOW_SECTION
1 0 600000
2 12600 23400
3 3600 9000
4 0 10800
5 10800 21600
6 3600 9000
7 7200 18000
8 5400 16200
9 1800 12600
DEPOT_SECTION
1
-1
EOF